50

100 21 300
100 1 300
98 29 294
97 8 294
97 23 291
94 26 286
92 24 281
92 14 287
91 2 277
85 11 282
84 16 296
84 20 291
83 15 286
82 11 256
82 17 289
80 11 286
78 13 253
78 10 281
78 22 268
78 20 240
75 2 284
74 3 285
73 21 287
72 6 292
71 16 285
70 12 251
70 10 280
68 8 280
66 11 229
65 15 247
65 17 237
54 10 259
50 8 261
50 7 209
50 3 209
49 3 212
49 13 229
49 8 252
47 3 259
44 12 148
44 6 294
42 7 219
42 10 245
41 5 229
41 13 178
41 11 200
40 8 248
36 1 207
36 1 287
30 1 242
